12 24 9 10
1 6 11 12 10 5 18 15 18 1 19 17 15 18 4 9 2 17 8 20 12 10 20 7 
6.62 5.97 15.43 0.86 0.06 4.07 8.68 6.62 6.31 0.62 15.37 8.77 15.58 5.51 0.65 6.44 10.59 0.77 1.14 8.9 3.49 6.81 2.43 4.74 
14.55 6.1 9.58 4.86 12.31 2.6 2.7 4.95 13.13 14.05 7.04 9.18 7.67 8.66 4.62 6.8 16 10.84 12.88 1.28 7.35 5.69 5.73 1.3 
8.58 8.41 12.09 15.76 10.05 2.57 15.24 12.13 10.53 0.39 0.19 15.74 0.62 14.13 15.29 9.69 0.25 0.37 5.7 13.88 0.44 8.14 4.06 13.68 
6.89 8.47 1.61 3.04 9.22 2.18 13.65 6.44 2.59 5.75 6.02 10.93 12.99 3.46 3.31 3.08 13.73 7.22 14.1 2.81 0.98 11.86 12.24 15.45 
1.7 6.37 7.95 9.09 8.17 5.25 8.15 15.15 14.38 1.42 5.91 7.03 3.88 4.14 4.05 13.49 12.34 12.67 6.71 1.02 13.97 15.1 5.67 15.62 
15.82 7.26 6.62 4.51 5.02 0.22 15.37 13.39 4.43 11.85 2.51 9.1 10.76 5.05 9.3 14.65 9.24 14.35 12.61 8.73 15.8 12.82 4.56 7.75 
5.94 3.71 7.37 6.82 3.98 10.7 3.58 1.96 6.66 15 13.5 5.65 1.11 14.02 11.67 12.47 2.62 1.58 12.93 2.63 11.93 9.05 4.2 12.15 
15.62 3.94 4.45 10.34 11.1 8.78 3.09 6.95 0.93 4.35 11.64 3.49 12.61 11.23 15.68 1.15 13.3 3.19 7.72 10.66 15 12.56 14.39 1.84 
2.33 12.81 11.52 7.72 1.21 14.48 11.48 3.48 8.66 6.89 12.85 7.81 12.52 10.73 9.14 2.04 9.16 5.57 11.54 12.89 0.27 2.48 5.94 0.93 
8 8 8 8 8 8 8 8 8 8 8 8 8 8 8 8 8 8 8 8 8 8 8 8 
1.42 12.63 6.82 5.59 3.46 15.67 14.8 11.5 5.41 3.97 4.36 6.35 3.33 7.39 0.62 14.8 6.5 14.49 6.84 14.53 13.32 3.52 8.39 9.17 
6.48 5.61 7.39 10.15 11.02 4.35 5.42 6.5 6.44 6.16 7.41 14.77 3.49 15.03 14.23 5.69 8.5 14.1 3.69 8.24 15.21 12.9 14.84 2.33 
1 1 1 1 1 1 1 1 1 1 1 1 1 1 1 1 1 1 1 1 1 1 1 1 
1 1 1 1 1 1 1 1 1 1 1 1 1 1 1 1 1 1 1 1 1 1 1 1 
1 1 1 1 1 1 1 1 1 1 1 1 1 1 1 1 1 1 1 1 1 1 1 1 
1 1 1 1 1 1 1 1 1 1 1 1 1 1 1 1 1 1 1 1 1 1 1 1 
1 1 1 1 1 1 1 1 1 1 1 1 1 1 1 1 1 1 1 1 1 1 1 1 
1 1 1 1 1 1 1 1 1 1 1 1 1 1 1 1 1 1 1 1 1 1 1 1 
1 1 1 1 1 1 1 1 1 1 1 1 1 1 1 1 1 1 1 1 1 1 1 1 
1 1 1 1 1 1 1 1 1 1 1 1 1 1 1 1 1 1 1 1 1 1 1 1 
1 1 1 1 1 1 1 1 1 1 1 1 1 1 1 1 1 1 1 1 1 1 1 1 
1 1 1 1 1 1 1 1 1 1 1 1 1 1 1 1 1 1 1 1 1 1 1 1 
1 1 1 1 1 1 1 1 1 1 1 1 1 1 1 1 1 1 1 1 1 1 1 1 
1 1 1 1 1 1 1 1 1 1 1 1 1 1 1 1 1 1 1 1 1 1 1 1 
0.01 0.01 0.01 0.01 0.01 0.01 0.01 0.01 0.01 0.01 0.01 0.01 0.01 0.01 0.01 0.01 0.01 0.01 0.01 0.01 0.01 0.01 0.01 0.01 
0.02 0.02 0.02 0.02 0.02 0.02 0.02 0.02 0.02 0.02 0.02 0.02 0.02 0.02 0.02 0.02 0.02 0.02 0.02 0.02 0.02 0.02 0.02 0.02 
0.03 0.03 0.03 0.03 0.03 0.03 0.03 0.03 0.03 0.03 0.03 0.03 0.03 0.03 0.03 0.03 0.03 0.03 0.03 0.03 0.03 0.03 0.03 0.03 
0.04 0.04 0.04 0.04 0.04 0.04 0.04 0.04 0.04 0.04 0.04 0.04 0.04 0.04 0.04 0.04 0.04 0.04 0.04 0.04 0.04 0.04 0.04 0.04 
0.05 0.05 0.05 0.05 0.05 0.05 0.05 0.05 0.05 0.05 0.05 0.05 0.05 0.05 0.05 0.05 0.05 0.05 0.05 0.05 0.05 0.05 0.05 0.05 
0.06 0.06 0.06 0.06 0.06 0.06 0.06 0.06 0.06 0.06 0.06 0.06 0.06 0.06 0.06 0.06 0.06 0.06 0.06 0.06 0.06 0.06 0.06 0.06 
0.07 0.07 0.07 0.07 0.07 0.07 0.07 0.07 0.07 0.07 0.07 0.07 0.07 0.07 0.07 0.07 0.07 0.07 0.07 0.07 0.07 0.07 0.07 0.07 
0.08 0.08 0.08 0.08 0.08 0.08 0.08 0.08 0.08 0.08 0.08 0.08 0.08 0.08 0.08 0.08 0.08 0.08 0.08 0.08 0.08 0.08 0.08 0.08 
0.09 0.09 0.09 0.09 0.09 0.09 0.09 0.09 0.09 0.09 0.09 0.09 0.09 0.09 0.09 0.09 0.09 0.09 0.09 0.09 0.09 0.09 0.09 0.09 
0.1 0.1 0.1 0.1 0.1 0.1 0.1 0.1 0.1 0.1 0.1 0.1 0.1 0.1 0.1 0.1 0.1 0.1 0.1 0.1 0.1 0.1 0.1 0.1 
0.5 0.5 0.5 0.5 0.5 0.5 0.5 0.5 0.5 0.5 0.5 0.5 0.5 0.5 0.5 0.5 0.5 0.5 0.5 0.5 0.5 0.5 0.5 0.5 
1 1 1 1 1 1 1 1 1 1 1 1 1 1 1 1 1 1 1 1 1 1 1 1 
